100 157122
30 23 80 84 58 94 64 61 91 47 9 21 29 37 32 63 72 34 39 18 66 93 35 59 52 2 3 42 62 41 85 15 22 55 97 68 74 78 65 60 83 45 38 17 99 33 36 71 7 100 76 49 67 81 48 10 73 86 57 44 12 82 90 5 8 4 20 98 13 46 75 1 26 11 96 95 19 51 54 40 70 43 53 50 28 89 92 6 27 88 25 79 16 56 87 14 24 31 69 77 
